SumColouring/MiniZinc model/Experiments/10_0.40_2.col.dzn
% Data file generated from RandomInstances/10_0.40_2.col DIMACS file
size = 10;

chi = 4;

adjacency = [|0,0,0,0,0,1,0,0,0,0,
|0,0,1,1,0,0,1,0,1,0,
|0,1,0,1,1,0,1,0,0,0,
|0,1,1,0,1,1,0,0,1,0,
|0,0,1,1,0,1,0,0,1,1,
|1,0,0,1,1,0,0,1,1,0,
|0,1,1,0,0,0,0,0,1,1,
|0,0,0,0,0,1,0,0,1,1,
|0,1,0,1,1,1,1,1,0,0,
|0,0,0,0,1,0,1,1,0,0,
|];